nvertices = 27;
owners    = [1,0,0,1,0,0,1,0,0,1,1,0,0,1,0,0,1,0,0,1,0,1,0,1,0,1,0];
colors    = [2,2,1,2,1,2,2,1,2,2,4,3,4,4,3,4,4,3,4,4,6,5,6,5,6,5,6];
nedges    = 60;
edgesv    = [1,1,2,2,2,3,4,4,4,5,6,6,6,7,7,7,8,9,9,9,10,11,11,12,13,13,13,14,14,14,15,16,16,16,17,17,17,18,19,19,19,20,21,22,22,22,22,23,23,24,24,24,24,25,25,26,26,26,26,27];
edgesw    = [3,2,1,4,22,2,2,5,6,6,4,7,24,6,8,9,9,7,10,26,9,12,13,13,11,14,22,13,15,16,16,14,17,24,16,18,19,19,17,20,26,19,22,21,23,2,13,22,24,23,25,6,16,24,26,25,27,9,19,26];
